c max 144  145  150  151  152  153  154  155  184  185  186  195  196  197  198  199  200  201  202  203  207  208  212  213 0
c ind 560  561  564  565  568  569  572  573  576  577  580  581  584  587  588  591  592  595  596  599  600  603  606  607  610  611  614  615  618  619  622  623  626  627  628  631  632  634  635  636 0
c This is a CNF SAT formula in the DIMACS CNF format,
c produced with the bc2cnf translator by Tommi Junttila;
c see http://users.ics.aalto.fi/tjunttil/circuits/index.html
c phi_Gamma_det <-> 1
c phi_Gamma <-> 1
c phi_T_feature_det <-> 1
c phi_T_transitions <-> 1
c phi_T_transitions_consistency <-> 1
c phi_T <-> 1
c phi_sim_leaves <-> 1
c phi_sim_transition <-> 1
c phi_sim <-> 1
c FORMULA <-> 1
c pi_1 <-> 2
c pi_0 <-> 84
c tau_1_3_approved_1 <-> 144
c tau_1_3_approved_0 <-> 145
c tau_1_2_approved_1 <-> 150
c tau_1_2_approved_0 <-> 151
c tau_1_1_approved_1 <-> 152
c tau_1_1_approved_0 <-> 153
c tau_1_0_approved_1 <-> 154
c tau_1_0_approved_0 <-> 155
c tau_0_3_approved_1 <-> 184
c tau_0_3_approved_0 <-> 185
c tau_0_3_1 <-> 186
c tau_0_2_approved_1 <-> 195
c tau_0_2_approved_0 <-> 196
c tau_0_2_1 <-> 197
c tau_0_1_approved_1 <-> 198
c tau_0_1_approved_0 <-> 199
c tau_0_1_1 <-> 200
c tau_0_0_approved_1 <-> 201
c tau_0_0_approved_0 <-> 202
c tau_0_0_1 <-> 203
c lam_1_monthly_income <-> 207
c lam_1_age <-> 208
c lam_0_monthly_income <-> 212
c lam_0_age <-> 213
c phi_Gamma_val <-> 558
c monthly_income_P895500 <-> 560
c age_P3000 <-> 561
c monthly_income_P527600 <-> 564
c age_P7200 <-> 565
c monthly_income_P423700 <-> 568
c age_P5300 <-> 569
c monthly_income_P171400 <-> 572
c age_P5900 <-> 573
c monthly_income_P778800 <-> 576
c age_P6200 <-> 577
c monthly_income_P546900 <-> 580
c age_P4600 <-> 581
c monthly_income_P178200 <-> 584
c monthly_income_P553300 <-> 587
c age_P6100 <-> 588
c monthly_income_P197800 <-> 591
c age_P5500 <-> 592
c monthly_income_P566900 <-> 595
c age_P5200 <-> 596
c monthly_income_P155900 <-> 599
c age_P5800 <-> 600
c monthly_income_P182100 <-> 603
c monthly_income_P425300 <-> 606
c age_P4900 <-> 607
c monthly_income_P285800 <-> 610
c age_P7900 <-> 611
c monthly_income_P357100 <-> 614
c age_P2800 <-> 615
c monthly_income_P866400 <-> 618
c age_P6900 <-> 619
c monthly_income_P508700 <-> 622
c age_P4200 <-> 623
c pi_approved_0 <-> 626
c approved_P0 <-> 626
c monthly_income_P946600 <-> 627
c age_P3300 <-> 628
c monthly_income_P117600 <-> 631
c age_P4000 <-> 632
c pi_approved_1 <-> 634
c approved_P100 <-> 634
c monthly_income_P177900 <-> 635
c age_P3200 <-> 636
p cnf 636 1761
1 0
2 -3 0
2 -8 0
-2 8 3 0
-3 4 0
-3 59 0
3 -59 -4 0
-4 5 0
-4 207 0
4 -207 -5 0
5 -6 0
5 -64 0
-5 64 6 0
6 -7 0
6 -34 0
-6 34 7 0
7 -39 0
7 -74 0
-7 74 39 0
8 -9 0
8 -25 0
-8 25 9 0
-9 10 0
-9 79 0
9 -79 -10 0
-10 11 0
-10 207 0
10 -207 -11 0
11 -12 0
11 -32 0
-11 32 12 0
12 -13 0
12 -47 0
-12 47 13 0
13 -14 0
13 -49 0
-13 49 14 0
14 -15 0
14 -66 0
-14 66 15 0
15 -16 0
15 -51 0
-15 51 16 0
16 -17 0
16 -36 0
-16 36 17 0
17 -18 0
17 -53 0
-17 53 18 0
18 -19 0
18 -55 0
-18 55 19 0
19 -20 0
19 -56 0
-19 56 20 0
20 -21 0
20 -68 0
-20 68 21 0
21 -22 0
21 -70 0
-21 70 22 0
22 -23 0
22 -38 0
-22 38 23 0
23 -24 0
23 -83 0
-23 83 24 0
24 -72 0
24 -75 0
-24 75 72 0
25 -26 0
25 -40 0
-25 40 26 0
-26 27 0
-26 30 0
26 -30 -27 0
-27 28 0
-27 29 0
27 -29 -28 0
28 144 0
28 -634 0
-28 634 -144 0
29 145 0
29 -626 0
-29 626 -145 0
-30 31 0
-30 208 0
30 -208 -31 0
31 -32 0
31 -33 0
-31 33 32 0
-32 564 0
-32 565 0
32 -565 -564 0
33 -34 0
33 -35 0
-33 35 34 0
-34 576 0
-34 577 0
34 -577 -576 0
35 -36 0
35 -37 0
-35 37 36 0
-36 587 0
-36 588 0
36 -588 -587 0
37 -38 0
37 -39 0
-37 39 38 0
-38 610 0
-38 611 0
38 -611 -610 0
-39 618 0
-39 619 0
39 -619 -618 0
40 -41 0
40 -57 0
-40 57 41 0
-41 42 0
-41 45 0
41 -45 -42 0
-42 43 0
-42 44 0
42 -44 -43 0
43 150 0
43 -634 0
-43 634 -150 0
44 151 0
44 -626 0
-44 626 -151 0
-45 46 0
-45 208 0
45 -208 -46 0
46 -47 0
46 -48 0
-46 48 47 0
-47 568 0
-47 569 0
47 -569 -568 0
48 -49 0
48 -50 0
-48 50 49 0
-49 572 0
-49 573 0
49 -573 -572 0
50 -51 0
50 -52 0
-50 52 51 0
-51 584 0
-51 600 0
51 -600 -584 0
52 -53 0
52 -54 0
-52 54 53 0
-53 591 0
-53 592 0
53 -592 -591 0
54 -55 0
54 -56 0
-54 56 55 0
-55 595 0
-55 596 0
55 -596 -595 0
-56 599 0
-56 600 0
56 -600 -599 0
57 -58 0
57 -78 0
-57 78 58 0
-58 59 0
-58 62 0
58 -62 -59 0
-59 60 0
-59 61 0
59 -61 -60 0
60 152 0
60 -634 0
-60 634 -152 0
61 153 0
61 -626 0
-61 626 -153 0
-62 63 0
-62 208 0
62 -208 -63 0
63 -64 0
63 -65 0
-63 65 64 0
-64 560 0
-64 561 0
64 -561 -560 0
65 -66 0
65 -67 0
-65 67 66 0
-66 580 0
-66 581 0
66 -581 -580 0
67 -68 0
67 -69 0
-67 69 68 0
-68 603 0
-68 632 0
68 -632 -603 0
69 -70 0
69 -71 0
-69 71 70 0
-70 606 0
-70 607 0
70 -607 -606 0
71 -72 0
71 -73 0
-71 73 72 0
-72 622 0
-72 623 0
72 -623 -622 0
73 -74 0
73 -75 0
-73 75 74 0
-74 627 0
-74 628 0
74 -628 -627 0
75 -76 0
75 -77 0
-75 77 76 0
-76 631 0
-76 632 0
76 -632 -631 0
-77 635 0
-77 636 0
77 -636 -635 0
-78 79 0
-78 82 0
78 -82 -79 0
-79 80 0
-79 81 0
79 -81 -80 0
80 154 0
80 -634 0
-80 634 -154 0
81 155 0
81 -626 0
-81 626 -155 0
-82 83 0
-82 208 0
82 -208 -83 0
-83 614 0
-83 615 0
83 -615 -614 0
84 -85 0
84 -87 0
-84 87 85 0
84 0
-85 86 0
-85 108 0
85 -108 -86 0
-86 5 0
-86 212 0
86 -212 -5 0
87 -88 0
87 -90 0
-87 90 88 0
-88 89 0
-88 115 0
88 -115 -89 0
-89 11 0
-89 212 0
89 -212 -11 0
90 -91 0
90 -98 0
-90 98 91 0
-91 92 0
-91 97 0
91 -97 -92 0
-92 93 0
-92 94 0
92 -94 -93 0
93 184 0
93 -634 0
-93 634 -184 0
-94 95 0
-94 96 0
94 -96 -95 0
95 185 0
95 -626 0
-95 626 -185 0
96 -2 0
96 186 0
-96 -186 2 0
-97 31 0
-97 213 0
97 -213 -31 0
98 -99 0
98 -106 0
-98 106 99 0
-99 100 0
-99 105 0
99 -105 -100 0
-100 101 0
-100 102 0
100 -102 -101 0
101 195 0
101 -634 0
-101 634 -195 0
-102 103 0
-102 104 0
102 -104 -103 0
103 196 0
103 -626 0
-103 626 -196 0
104 -2 0
104 197 0
-104 -197 2 0
-105 46 0
-105 213 0
105 -213 -46 0
106 -107 0
106 -114 0
-106 114 107 0
-107 108 0
-107 113 0
107 -113 -108 0
-108 109 0
-108 110 0
108 -110 -109 0
109 198 0
109 -634 0
-109 634 -198 0
-110 111 0
-110 112 0
110 -112 -111 0
111 199 0
111 -626 0
-111 626 -199 0
112 -2 0
112 200 0
-112 -200 2 0
-113 63 0
-113 213 0
113 -213 -63 0
-114 115 0
-114 120 0
114 -120 -115 0
-115 116 0
-115 117 0
115 -117 -116 0
116 201 0
116 -634 0
-116 634 -201 0
-117 118 0
-117 119 0
117 -119 -118 0
118 202 0
118 -626 0
-118 626 -202 0
119 -2 0
119 203 0
-119 -203 2 0
-120 83 0
-120 213 0
120 -213 -83 0
121 207 0
121 -122 0
-121 122 -207 0
121 0
-122 -144 0
-122 123 0
122 -123 144 0
-123 -145 0
-123 124 0
123 -124 145 0
-124 -150 0
-124 -151 0
124 151 150 0
125 212 0
125 -126 0
-125 126 -212 0
125 0
-126 -184 0
-126 127 0
126 -127 184 0
-127 -185 0
-127 128 0
127 -128 185 0
-128 -186 0
-128 129 0
128 -129 186 0
-129 -195 0
-129 130 0
129 -130 195 0
-130 -196 0
-130 -197 0
130 197 196 0
131 207 0
131 -132 0
-131 132 -207 0
131 0
-132 133 0
-132 136 0
132 -136 -133 0
133 -134 0
133 -135 0
-133 135 134 0
-134 -153 0
-134 152 0
134 -152 153 0
-135 -152 0
-135 153 0
135 -153 152 0
136 -137 0
136 -138 0
-136 138 137 0
-137 -155 0
-137 154 0
137 -154 155 0
-138 -154 0
-138 155 0
138 -155 154 0
139 208 0
139 -140 0
-139 140 -208 0
139 0
-140 141 0
-140 146 0
140 -146 -141 0
141 -142 0
141 -143 0
-141 143 142 0
-142 -145 0
-142 144 0
142 -144 145 0
-143 -144 0
-143 145 0
143 -145 144 0
-146 132 0
-146 147 0
146 -147 -132 0
147 -148 0
147 -149 0
-147 149 148 0
-148 -151 0
-148 150 0
148 -150 151 0
-149 -150 0
-149 151 0
149 -151 150 0
156 212 0
156 -157 0
-156 157 -212 0
156 0
-157 158 0
-157 166 0
157 -166 -158 0
158 -159 0
158 -164 0
-158 164 159 0
159 -160 0
159 -162 0
-159 162 160 0
-160 161 0
-160 198 0
160 -198 -161 0
-161 -199 0
-161 -200 0
161 200 199 0
-162 163 0
-162 199 0
162 -199 -163 0
-163 -198 0
-163 -200 0
163 200 198 0
-164 165 0
-164 200 0
164 -200 -165 0
-165 -198 0
-165 -199 0
165 199 198 0
166 -167 0
166 -172 0
-166 172 167 0
167 -168 0
167 -170 0
-167 170 168 0
-168 169 0
-168 201 0
168 -201 -169 0
-169 -202 0
-169 -203 0
169 203 202 0
-170 171 0
-170 202 0
170 -202 -171 0
-171 -201 0
-171 -203 0
171 203 201 0
-172 173 0
-172 203 0
172 -203 -173 0
-173 -201 0
-173 -202 0
173 202 201 0
174 213 0
174 -175 0
-174 175 -213 0
174 0
-175 176 0
-175 187 0
175 -187 -176 0
176 -177 0
176 -182 0
-176 182 177 0
177 -178 0
177 -180 0
-177 180 178 0
-178 179 0
-178 184 0
178 -184 -179 0
-179 -185 0
-179 -186 0
179 186 185 0
-180 181 0
-180 185 0
180 -185 -181 0
-181 -184 0
-181 -186 0
181 186 184 0
-182 183 0
-182 186 0
182 -186 -183 0
-183 -184 0
-183 -185 0
183 185 184 0
-187 157 0
-187 188 0
187 -188 -157 0
188 -189 0
188 -193 0
-188 193 189 0
189 -190 0
189 -191 0
-189 191 190 0
-190 130 0
-190 195 0
190 -195 -130 0
-191 192 0
-191 196 0
191 -196 -192 0
-192 -195 0
-192 -197 0
192 197 195 0
-193 194 0
-193 197 0
193 -197 -194 0
-194 -195 0
-194 -196 0
194 196 195 0
204 -205 0
204 -206 0
-204 206 205 0
204 0
-205 -208 0
-205 207 0
205 -207 208 0
-206 -207 0
-206 208 0
206 -208 207 0
209 -210 0
209 -211 0
-209 211 210 0
209 0
-210 -213 0
-210 212 0
210 -212 213 0
-211 -212 0
-211 213 0
211 -213 212 0
214 634 0
214 626 0
-214 -626 -634 0
214 0
215 564 0
215 560 0
-215 -560 -564 0
215 0
216 568 0
216 -217 0
-216 217 -568 0
216 0
-217 -564 0
-217 -560 0
217 560 564 0
218 572 0
218 -219 0
-218 219 -572 0
218 0
-219 -560 0
-219 220 0
219 -220 560 0
-220 -564 0
-220 -568 0
220 568 564 0
221 576 0
221 -222 0
-221 222 -576 0
221 0
-222 -560 0
-222 223 0
222 -223 560 0
-223 -564 0
-223 224 0
223 -224 564 0
-224 -568 0
-224 -572 0
224 572 568 0
225 580 0
225 -226 0
-225 226 -580 0
225 0
-226 -560 0
-226 227 0
226 -227 560 0
-227 -564 0
-227 228 0
227 -228 564 0
-228 -568 0
-228 229 0
228 -229 568 0
-229 -572 0
-229 -576 0
229 576 572 0
230 584 0
230 -231 0
-230 231 -584 0
230 0
-231 -560 0
-231 232 0
231 -232 560 0
-232 -564 0
-232 233 0
232 -233 564 0
-233 -568 0
-233 234 0
233 -234 568 0
-234 -572 0
-234 235 0
234 -235 572 0
-235 -576 0
-235 -580 0
235 580 576 0
236 587 0
236 -237 0
-236 237 -587 0
236 0
-237 -560 0
-237 238 0
237 -238 560 0
-238 -564 0
-238 239 0
238 -239 564 0
-239 -568 0
-239 240 0
239 -240 568 0
-240 -572 0
-240 241 0
240 -241 572 0
-241 -576 0
-241 242 0
241 -242 576 0
-242 -580 0
-242 -584 0
242 584 580 0
243 591 0
243 -244 0
-243 244 -591 0
243 0
-244 -560 0
-244 245 0
244 -245 560 0
-245 -564 0
-245 246 0
245 -246 564 0
-246 -568 0
-246 247 0
246 -247 568 0
-247 -572 0
-247 248 0
247 -248 572 0
-248 -576 0
-248 249 0
248 -249 576 0
-249 -580 0
-249 250 0
249 -250 580 0
-250 -584 0
-250 -587 0
250 587 584 0
251 595 0
251 -252 0
-251 252 -595 0
251 0
-252 -560 0
-252 253 0
252 -253 560 0
-253 -564 0
-253 254 0
253 -254 564 0
-254 -568 0
-254 255 0
254 -255 568 0
-255 -572 0
-255 256 0
255 -256 572 0
-256 -576 0
-256 257 0
256 -257 576 0
-257 -580 0
-257 258 0
257 -258 580 0
-258 -584 0
-258 259 0
258 -259 584 0
-259 -587 0
-259 -591 0
259 591 587 0
260 599 0
260 -261 0
-260 261 -599 0
260 0
-261 -560 0
-261 262 0
261 -262 560 0
-262 -564 0
-262 263 0
262 -263 564 0
-263 -568 0
-263 264 0
263 -264 568 0
-264 -572 0
-264 265 0
264 -265 572 0
-265 -576 0
-265 266 0
265 -266 576 0
-266 -580 0
-266 267 0
266 -267 580 0
-267 -584 0
-267 268 0
267 -268 584 0
-268 -587 0
-268 269 0
268 -269 587 0
-269 -591 0
-269 -595 0
269 595 591 0
270 603 0
270 -271 0
-270 271 -603 0
270 0
-271 -560 0
-271 272 0
271 -272 560 0
-272 -564 0
-272 273 0
272 -273 564 0
-273 -568 0
-273 274 0
273 -274 568 0
-274 -572 0
-274 275 0
274 -275 572 0
-275 -576 0
-275 276 0
275 -276 576 0
-276 -580 0
-276 277 0
276 -277 580 0
-277 -584 0
-277 278 0
277 -278 584 0
-278 -587 0
-278 279 0
278 -279 587 0
-279 -591 0
-279 280 0
279 -280 591 0
-280 -595 0
-280 -599 0
280 599 595 0
281 606 0
281 -282 0
-281 282 -606 0
281 0
-282 -560 0
-282 283 0
282 -283 560 0
-283 -564 0
-283 284 0
283 -284 564 0
-284 -568 0
-284 285 0
284 -285 568 0
-285 -572 0
-285 286 0
285 -286 572 0
-286 -576 0
-286 287 0
286 -287 576 0
-287 -580 0
-287 288 0
287 -288 580 0
-288 -584 0
-288 289 0
288 -289 584 0
-289 -587 0
-289 290 0
289 -290 587 0
-290 -591 0
-290 291 0
290 -291 591 0
-291 -595 0
-291 292 0
291 -292 595 0
-292 -599 0
-292 -603 0
292 603 599 0
293 610 0
293 -294 0
-293 294 -610 0
293 0
-294 -560 0
-294 295 0
294 -295 560 0
-295 -564 0
-295 296 0
295 -296 564 0
-296 -568 0
-296 297 0
296 -297 568 0
-297 -572 0
-297 298 0
297 -298 572 0
-298 -576 0
-298 299 0
298 -299 576 0
-299 -580 0
-299 300 0
299 -300 580 0
-300 -584 0
-300 301 0
300 -301 584 0
-301 -587 0
-301 302 0
301 -302 587 0
-302 -591 0
-302 303 0
302 -303 591 0
-303 -595 0
-303 304 0
303 -304 595 0
-304 -599 0
-304 305 0
304 -305 599 0
-305 -603 0
-305 -606 0
305 606 603 0
306 614 0
306 -307 0
-306 307 -614 0
306 0
-307 -560 0
-307 308 0
307 -308 560 0
-308 -564 0
-308 309 0
308 -309 564 0
-309 -568 0
-309 310 0
309 -310 568 0
-310 -572 0
-310 311 0
310 -311 572 0
-311 -576 0
-311 312 0
311 -312 576 0
-312 -580 0
-312 313 0
312 -313 580 0
-313 -584 0
-313 314 0
313 -314 584 0
-314 -587 0
-314 315 0
314 -315 587 0
-315 -591 0
-315 316 0
315 -316 591 0
-316 -595 0
-316 317 0
316 -317 595 0
-317 -599 0
-317 318 0
317 -318 599 0
-318 -603 0
-318 319 0
318 -319 603 0
-319 -606 0
-319 -610 0
319 610 606 0
320 618 0
320 -321 0
-320 321 -618 0
320 0
-321 -560 0
-321 322 0
321 -322 560 0
-322 -564 0
-322 323 0
322 -323 564 0
-323 -568 0
-323 324 0
323 -324 568 0
-324 -572 0
-324 325 0
324 -325 572 0
-325 -576 0
-325 326 0
325 -326 576 0
-326 -580 0
-326 327 0
326 -327 580 0
-327 -584 0
-327 328 0
327 -328 584 0
-328 -587 0
-328 329 0
328 -329 587 0
-329 -591 0
-329 330 0
329 -330 591 0
-330 -595 0
-330 331 0
330 -331 595 0
-331 -599 0
-331 332 0
331 -332 599 0
-332 -603 0
-332 333 0
332 -333 603 0
-333 -606 0
-333 334 0
333 -334 606 0
-334 -610 0
-334 -614 0
334 614 610 0
335 622 0
335 -336 0
-335 336 -622 0
335 0
-336 -560 0
-336 337 0
336 -337 560 0
-337 -564 0
-337 338 0
337 -338 564 0
-338 -568 0
-338 339 0
338 -339 568 0
-339 -572 0
-339 340 0
339 -340 572 0
-340 -576 0
-340 341 0
340 -341 576 0
-341 -580 0
-341 342 0
341 -342 580 0
-342 -584 0
-342 343 0
342 -343 584 0
-343 -587 0
-343 344 0
343 -344 587 0
-344 -591 0
-344 345 0
344 -345 591 0
-345 -595 0
-345 346 0
345 -346 595 0
-346 -599 0
-346 347 0
346 -347 599 0
-347 -603 0
-347 348 0
347 -348 603 0
-348 -606 0
-348 349 0
348 -349 606 0
-349 -610 0
-349 350 0
349 -350 610 0
-350 -614 0
-350 -618 0
350 618 614 0
351 627 0
351 -352 0
-351 352 -627 0
351 0
-352 -560 0
-352 353 0
352 -353 560 0
-353 -564 0
-353 354 0
353 -354 564 0
-354 -568 0
-354 355 0
354 -355 568 0
-355 -572 0
-355 356 0
355 -356 572 0
-356 -576 0
-356 357 0
356 -357 576 0
-357 -580 0
-357 358 0
357 -358 580 0
-358 -584 0
-358 359 0
358 -359 584 0
-359 -587 0
-359 360 0
359 -360 587 0
-360 -591 0
-360 361 0
360 -361 591 0
-361 -595 0
-361 362 0
361 -362 595 0
-362 -599 0
-362 363 0
362 -363 599 0
-363 -603 0
-363 364 0
363 -364 603 0
-364 -606 0
-364 365 0
364 -365 606 0
-365 -610 0
-365 366 0
365 -366 610 0
-366 -614 0
-366 367 0
366 -367 614 0
-367 -618 0
-367 -622 0
367 622 618 0
368 631 0
368 -369 0
-368 369 -631 0
368 0
-369 -560 0
-369 370 0
369 -370 560 0
-370 -564 0
-370 371 0
370 -371 564 0
-371 -568 0
-371 372 0
371 -372 568 0
-372 -572 0
-372 373 0
372 -373 572 0
-373 -576 0
-373 374 0
373 -374 576 0
-374 -580 0
-374 375 0
374 -375 580 0
-375 -584 0
-375 376 0
375 -376 584 0
-376 -587 0
-376 377 0
376 -377 587 0
-377 -591 0
-377 378 0
377 -378 591 0
-378 -595 0
-378 379 0
378 -379 595 0
-379 -599 0
-379 380 0
379 -380 599 0
-380 -603 0
-380 381 0
380 -381 603 0
-381 -606 0
-381 382 0
381 -382 606 0
-382 -610 0
-382 383 0
382 -383 610 0
-383 -614 0
-383 384 0
383 -384 614 0
-384 -618 0
-384 385 0
384 -385 618 0
-385 -622 0
-385 -627 0
385 627 622 0
386 635 0
386 -387 0
-386 387 -635 0
386 0
-387 -560 0
-387 388 0
387 -388 560 0
-388 -564 0
-388 389 0
388 -389 564 0
-389 -568 0
-389 390 0
389 -390 568 0
-390 -572 0
-390 391 0
390 -391 572 0
-391 -576 0
-391 392 0
391 -392 576 0
-392 -580 0
-392 393 0
392 -393 580 0
-393 -584 0
-393 394 0
393 -394 584 0
-394 -587 0
-394 395 0
394 -395 587 0
-395 -591 0
-395 396 0
395 -396 591 0
-396 -595 0
-396 397 0
396 -397 595 0
-397 -599 0
-397 398 0
397 -398 599 0
-398 -603 0
-398 399 0
398 -399 603 0
-399 -606 0
-399 400 0
399 -400 606 0
-400 -610 0
-400 401 0
400 -401 610 0
-401 -614 0
-401 402 0
401 -402 614 0
-402 -618 0
-402 403 0
402 -403 618 0
-403 -622 0
-403 404 0
403 -404 622 0
-404 -627 0
-404 -631 0
404 631 627 0
405 565 0
405 561 0
-405 -561 -565 0
405 0
406 569 0
406 -407 0
-406 407 -569 0
406 0
-407 -565 0
-407 -561 0
407 561 565 0
408 573 0
408 -409 0
-408 409 -573 0
408 0
-409 -561 0
-409 410 0
409 -410 561 0
-410 -565 0
-410 -569 0
410 569 565 0
411 577 0
411 -412 0
-411 412 -577 0
411 0
-412 -561 0
-412 413 0
412 -413 561 0
-413 -565 0
-413 414 0
413 -414 565 0
-414 -569 0
-414 -573 0
414 573 569 0
415 581 0
415 -416 0
-415 416 -581 0
415 0
-416 -561 0
-416 417 0
416 -417 561 0
-417 -565 0
-417 418 0
417 -418 565 0
-418 -569 0
-418 419 0
418 -419 569 0
-419 -573 0
-419 -577 0
419 577 573 0
420 588 0
420 -421 0
-420 421 -588 0
420 0
-421 -561 0
-421 422 0
421 -422 561 0
-422 -565 0
-422 423 0
422 -423 565 0
-423 -569 0
-423 424 0
423 -424 569 0
-424 -573 0
-424 425 0
424 -425 573 0
-425 -577 0
-425 -581 0
425 581 577 0
426 592 0
426 -427 0
-426 427 -592 0
426 0
-427 -561 0
-427 428 0
427 -428 561 0
-428 -565 0
-428 429 0
428 -429 565 0
-429 -569 0
-429 430 0
429 -430 569 0
-430 -573 0
-430 431 0
430 -431 573 0
-431 -577 0
-431 432 0
431 -432 577 0
-432 -581 0
-432 -588 0
432 588 581 0
433 596 0
433 -434 0
-433 434 -596 0
433 0
-434 -561 0
-434 435 0
434 -435 561 0
-435 -565 0
-435 436 0
435 -436 565 0
-436 -569 0
-436 437 0
436 -437 569 0
-437 -573 0
-437 438 0
437 -438 573 0
-438 -577 0
-438 439 0
438 -439 577 0
-439 -581 0
-439 440 0
439 -440 581 0
-440 -588 0
-440 -592 0
440 592 588 0
441 600 0
441 -442 0
-441 442 -600 0
441 0
-442 -561 0
-442 443 0
442 -443 561 0
-443 -565 0
-443 444 0
443 -444 565 0
-444 -569 0
-444 445 0
444 -445 569 0
-445 -573 0
-445 446 0
445 -446 573 0
-446 -577 0
-446 447 0
446 -447 577 0
-447 -581 0
-447 448 0
447 -448 581 0
-448 -588 0
-448 449 0
448 -449 588 0
-449 -592 0
-449 -596 0
449 596 592 0
450 607 0
450 -451 0
-450 451 -607 0
450 0
-451 -561 0
-451 452 0
451 -452 561 0
-452 -565 0
-452 453 0
452 -453 565 0
-453 -569 0
-453 454 0
453 -454 569 0
-454 -573 0
-454 455 0
454 -455 573 0
-455 -577 0
-455 456 0
455 -456 577 0
-456 -581 0
-456 457 0
456 -457 581 0
-457 -588 0
-457 458 0
457 -458 588 0
-458 -592 0
-458 459 0
458 -459 592 0
-459 -596 0
-459 -600 0
459 600 596 0
460 611 0
460 -461 0
-460 461 -611 0
460 0
-461 -561 0
-461 462 0
461 -462 561 0
-462 -565 0
-462 463 0
462 -463 565 0
-463 -569 0
-463 464 0
463 -464 569 0
-464 -573 0
-464 465 0
464 -465 573 0
-465 -577 0
-465 466 0
465 -466 577 0
-466 -581 0
-466 467 0
466 -467 581 0
-467 -588 0
-467 468 0
467 -468 588 0
-468 -592 0
-468 469 0
468 -469 592 0
-469 -596 0
-469 470 0
469 -470 596 0
-470 -600 0
-470 -607 0
470 607 600 0
471 615 0
471 -472 0
-471 472 -615 0
471 0
-472 -561 0
-472 473 0
472 -473 561 0
-473 -565 0
-473 474 0
473 -474 565 0
-474 -569 0
-474 475 0
474 -475 569 0
-475 -573 0
-475 476 0
475 -476 573 0
-476 -577 0
-476 477 0
476 -477 577 0
-477 -581 0
-477 478 0
477 -478 581 0
-478 -588 0
-478 479 0
478 -479 588 0
-479 -592 0
-479 480 0
479 -480 592 0
-480 -596 0
-480 481 0
480 -481 596 0
-481 -600 0
-481 482 0
481 -482 600 0
-482 -607 0
-482 -611 0
482 611 607 0
483 619 0
483 -484 0
-483 484 -619 0
483 0
-484 -561 0
-484 485 0
484 -485 561 0
-485 -565 0
-485 486 0
485 -486 565 0
-486 -569 0
-486 487 0
486 -487 569 0
-487 -573 0
-487 488 0
487 -488 573 0
-488 -577 0
-488 489 0
488 -489 577 0
-489 -581 0
-489 490 0
489 -490 581 0
-490 -588 0
-490 491 0
490 -491 588 0
-491 -592 0
-491 492 0
491 -492 592 0
-492 -596 0
-492 493 0
492 -493 596 0
-493 -600 0
-493 494 0
493 -494 600 0
-494 -607 0
-494 495 0
494 -495 607 0
-495 -611 0
-495 -615 0
495 615 611 0
496 623 0
496 -497 0
-496 497 -623 0
496 0
-497 -561 0
-497 498 0
497 -498 561 0
-498 -565 0
-498 499 0
498 -499 565 0
-499 -569 0
-499 500 0
499 -500 569 0
-500 -573 0
-500 501 0
500 -501 573 0
-501 -577 0
-501 502 0
501 -502 577 0
-502 -581 0
-502 503 0
502 -503 581 0
-503 -588 0
-503 504 0
503 -504 588 0
-504 -592 0
-504 505 0
504 -505 592 0
-505 -596 0
-505 506 0
505 -506 596 0
-506 -600 0
-506 507 0
506 -507 600 0
-507 -607 0
-507 508 0
507 -508 607 0
-508 -611 0
-508 509 0
508 -509 611 0
-509 -615 0
-509 -619 0
509 619 615 0
510 628 0
510 -511 0
-510 511 -628 0
510 0
-511 -561 0
-511 512 0
511 -512 561 0
-512 -565 0
-512 513 0
512 -513 565 0
-513 -569 0
-513 514 0
513 -514 569 0
-514 -573 0
-514 515 0
514 -515 573 0
-515 -577 0
-515 516 0
515 -516 577 0
-516 -581 0
-516 517 0
516 -517 581 0
-517 -588 0
-517 518 0
517 -518 588 0
-518 -592 0
-518 519 0
518 -519 592 0
-519 -596 0
-519 520 0
519 -520 596 0
-520 -600 0
-520 521 0
520 -521 600 0
-521 -607 0
-521 522 0
521 -522 607 0
-522 -611 0
-522 523 0
522 -523 611 0
-523 -615 0
-523 524 0
523 -524 615 0
-524 -619 0
-524 -623 0
524 623 619 0
525 632 0
525 -526 0
-525 526 -632 0
525 0
-526 -561 0
-526 527 0
526 -527 561 0
-527 -565 0
-527 528 0
527 -528 565 0
-528 -569 0
-528 529 0
528 -529 569 0
-529 -573 0
-529 530 0
529 -530 573 0
-530 -577 0
-530 531 0
530 -531 577 0
-531 -581 0
-531 532 0
531 -532 581 0
-532 -588 0
-532 533 0
532 -533 588 0
-533 -592 0
-533 534 0
533 -534 592 0
-534 -596 0
-534 535 0
534 -535 596 0
-535 -600 0
-535 536 0
535 -536 600 0
-536 -607 0
-536 537 0
536 -537 607 0
-537 -611 0
-537 538 0
537 -538 611 0
-538 -615 0
-538 539 0
538 -539 615 0
-539 -619 0
-539 540 0
539 -540 619 0
-540 -623 0
-540 -628 0
540 628 623 0
541 636 0
541 -542 0
-541 542 -636 0
541 0
-542 -561 0
-542 543 0
542 -543 561 0
-543 -565 0
-543 544 0
543 -544 565 0
-544 -569 0
-544 545 0
544 -545 569 0
-545 -573 0
-545 546 0
545 -546 573 0
-546 -577 0
-546 547 0
546 -547 577 0
-547 -581 0
-547 548 0
547 -548 581 0
-548 -588 0
-548 549 0
548 -549 588 0
-549 -592 0
-549 550 0
549 -550 592 0
-550 -596 0
-550 551 0
550 -551 596 0
-551 -600 0
-551 552 0
551 -552 600 0
-552 -607 0
-552 553 0
552 -553 607 0
-553 -611 0
-553 554 0
553 -554 611 0
-554 -615 0
-554 555 0
554 -555 615 0
-555 -619 0
-555 556 0
555 -556 619 0
-556 -623 0
-556 557 0
556 -557 623 0
-557 -628 0
-557 -632 0
557 632 628 0
558 -559 0
558 -562 0
-558 562 559 0
558 0
-559 64 0
-559 626 0
559 -626 -64 0
562 -563 0
562 -566 0
-562 566 563 0
-563 32 0
-563 634 0
563 -634 -32 0
566 -567 0
566 -570 0
-566 570 567 0
-567 47 0
-567 634 0
567 -634 -47 0
570 -571 0
570 -574 0
-570 574 571 0
-571 49 0
-571 634 0
571 -634 -49 0
574 -575 0
574 -578 0
-574 578 575 0
-575 34 0
-575 634 0
575 -634 -34 0
578 -579 0
578 -582 0
-578 582 579 0
-579 66 0
-579 634 0
579 -634 -66 0
582 -583 0
582 -585 0
-582 585 583 0
-583 51 0
-583 634 0
583 -634 -51 0
585 -586 0
585 -589 0
-585 589 586 0
-586 36 0
-586 634 0
586 -634 -36 0
589 -590 0
589 -593 0
-589 593 590 0
-590 53 0
-590 634 0
590 -634 -53 0
593 -594 0
593 -597 0
-593 597 594 0
-594 55 0
-594 634 0
594 -634 -55 0
597 -598 0
597 -601 0
-597 601 598 0
-598 56 0
-598 634 0
598 -634 -56 0
601 -602 0
601 -604 0
-601 604 602 0
-602 68 0
-602 634 0
602 -634 -68 0
604 -605 0
604 -608 0
-604 608 605 0
-605 70 0
-605 634 0
605 -634 -70 0
608 -609 0
608 -612 0
-608 612 609 0
-609 38 0
-609 634 0
609 -634 -38 0
612 -613 0
612 -616 0
-612 616 613 0
-613 83 0
-613 634 0
613 -634 -83 0
616 -617 0
616 -620 0
-616 620 617 0
-617 39 0
-617 634 0
617 -634 -39 0
620 -621 0
620 -624 0
-620 624 621 0
-621 72 0
-621 634 0
621 -634 -72 0
624 -625 0
624 -629 0
-624 629 625 0
-625 74 0
-625 626 0
625 -626 -74 0
629 -630 0
629 -633 0
-629 633 630 0
-630 76 0
-630 634 0
630 -634 -76 0
-633 77 0
-633 634 0
633 -634 -77 0
